p ocr 1078 991 2148
1 1079
1 1080
2 1079
3 1079
4 1079
5 1079
6 1079
7 1079
8 1079
9 1079
10 1079
11 1079
12 1079
13 1079
14 1079
15 1079
16 1079
17 1079
18 1079
19 1079
20 1079
21 1079
22 1079
23 1079
24 1079
25 1079
26 1079
27 1079
28 1079
29 1079
30 1079
31 1079
32 1079
33 1079
34 1079
35 1079
36 1079
37 1079
38 1079
39 1079
40 1079
41 1079
42 1079
43 1079
44 1079
45 1079
46 1079
47 1079
48 1079
49 1079
50 1079
51 1079
52 1079
53 1079
54 1079
55 1079
56 1079
57 1079
58 1079
59 1079
60 1079
61 1079
62 1079
63 1079
64 1079
65 1079
66 1079
67 1079
68 1079
69 1079
70 1079
71 1079
72 1079
73 1079
74 1079
75 1079
76 1079
77 1079
78 1079
79 1079
80 1079
81 1079
82 1079
83 1079
84 1079
85 1079
86 1079
87 1079
88 1079
89 1079
90 1079
91 1079
92 1079
93 1079
94 1079
95 1079
96 1079
97 1079
98 1079
99 1079
100 1079
101 1079
102 1079
103 1079
104 1079
105 1079
106 1079
107 1079
108 1079
109 1079
110 1079
111 1079
112 1079
113 1079
114 1079
115 1079
116 1079
117 1079
118 1079
119 1079
120 1079
121 1079
122 1079
123 1079
124 1079
125 1079
126 1079
127 1079
128 1079
129 1079
130 1079
131 1079
132 1079
133 1079
134 1079
135 1079
136 1079
137 1079
138 1079
139 1079
140 1079
141 1079
142 1079
143 1079
144 1079
145 1079
146 1079
147 1079
148 1079
149 1079
150 1079
151 1079
152 1079
153 1079
154 1079
155 1079
156 1079
157 1079
158 1079
159 1079
160 1079
161 1079
162 1079
163 1079
164 1079
165 1079
166 1079
167 1079
168 1079
169 1079
170 1079
171 1079
172 1079
173 1079
174 1079
175 1079
176 1079
177 1079
178 1079
179 1079
180 1079
181 1079
182 1079
183 1079
184 1079
185 1079
186 1079
187 1079
188 1079
189 1079
190 1079
191 1079
192 1079
193 1079
194 1079
195 1079
196 1079
197 1079
198 1079
199 1079
200 1079
201 1079
202 1079
203 1079
204 1079
205 1079
206 1079
207 1079
208 1079
209 1079
210 1079
211 1079
211 1081
211 1082
211 1083
211 1084
211 1085
211 1086
211 1087
211 1088
211 1089
211 1090
211 1091
211 1092
211 1093
211 1094
211 1095
211 1096
211 1097
211 1098
211 1099
211 1100
211 1101
211 1102
211 1103
211 1104
211 1105
211 1106
211 1107
211 1108
211 1109
211 1110
211 1111
211 1112
211 1113
211 1114
211 1115
211 1116
211 1117
211 1118
211 1119
211 1120
211 1121
211 1122
211 1123
211 1124
211 1125
211 1126
211 1127
211 1128
211 1129
211 1130
211 1131
211 1132
211 1133
211 1134
211 1135
211 1136
211 1137
211 1138
211 1139
211 1140
211 1141
211 1142
211 1143
211 1144
211 1145
211 1146
211 1147
211 1148
211 1149
211 1150
211 1151
211 1152
211 1153
211 1154
211 1155
211 1156
211 1157
211 1158
211 1159
211 1160
211 1161
211 1162
211 1163
211 1164
211 1165
211 1166
211 1167
211 1168
211 1169
211 1170
211 1171
211 1172
211 1173
211 1174
211 1175
211 1176
211 1177
211 1178
211 1179
211 1180
211 1181
211 1182
211 1183
211 1184
211 1185
211 1186
211 1187
211 1188
211 1189
211 1190
211 1191
211 1192
211 1193
211 1194
211 1195
211 1196
211 1197
211 1198
211 1199
211 1200
211 1201
211 1202
211 1203
211 1204
211 1205
211 1206
211 1207
211 1208
211 1209
211 1210
211 1211
211 1212
211 1213
211 1214
211 1215
211 1216
211 1217
211 1218
211 1219
211 1220
211 1221
211 1222
211 1223
211 1224
211 1225
211 1226
211 1227
211 1228
211 1229
211 1230
211 1231
211 1232
211 1233
211 1234
211 1235
211 1236
211 1237
211 1238
211 1239
211 1240
211 1241
211 1242
211 1243
211 1244
211 1245
211 1246
211 1247
211 1248
211 1249
211 1250
211 1251
211 1252
211 1253
211 1254
211 1255
211 1256
211 1257
211 1258
211 1259
211 1260
211 1261
211 1262
211 1263
211 1264
211 1265
211 1266
211 1267
211 1268
211 1269
211 1270
211 1271
211 1272
211 1273
211 1274
211 1275
211 1276
211 1277
211 1278
211 1279
211 1280
211 1281
211 1282
211 1283
211 1284
211 1285
211 1286
211 1287
211 1288
211 1289
211 1290
212 1080
213 1080
214 1080
215 1080
216 1080
217 1080
218 1080
219 1080
220 1080
221 1080
222 1080
223 1080
224 1080
225 1080
226 1080
227 1080
228 1080
229 1080
230 1080
231 1080
231 1291
231 1292
231 1293
231 1294
231 1295
232 1291
232 1292
232 1293
232 1294
232 1295
233 1291
233 1292
233 1293
233 1294
233 1295
234 1291
234 1292
234 1293
234 1294
234 1295
235 1291
235 1292
235 1293
235 1294
235 1295
235 1296
235 1297
236 1296
237 1296
238 1296
239 1296
240 1296
241 1296
242 1296
243 1296
244 1296
245 1296
246 1296
247 1296
248 1296
249 1296
250 1296
251 1296
252 1296
253 1296
254 1296
255 1296
256 1296
257 1296
258 1296
259 1296
260 1296
261 1296
262 1296
263 1296
264 1296
265 1296
266 1296
267 1296
268 1296
269 1296
270 1296
271 1296
272 1296
273 1296
274 1296
275 1296
276 1296
277 1296
278 1296
279 1296
280 1296
281 1296
282 1296
283 1296
284 1296
285 1296
286 1296
287 1296
288 1296
289 1296
290 1296
291 1296
292 1296
293 1296
294 1296
295 1296
296 1296
297 1296
298 1296
299 1296
300 1296
301 1296
302 1296
303 1296
304 1296
305 1296
306 1296
307 1296
308 1296
309 1296
310 1296
311 1296
312 1296
313 1296
314 1296
315 1296
316 1296
317 1296
318 1296
319 1296
320 1296
321 1296
322 1296
323 1296
324 1296
325 1296
326 1296
327 1296
328 1296
329 1296
330 1296
331 1296
332 1296
333 1296
334 1296
335 1296
336 1296
337 1296
338 1296
339 1296
340 1296
341 1296
342 1296
343 1296
344 1296
345 1296
346 1296
347 1296
348 1296
349 1296
350 1296
351 1296
352 1296
353 1296
354 1296
355 1296
356 1296
357 1296
358 1296
359 1296
360 1296
361 1296
362 1296
363 1296
364 1296
365 1296
366 1296
367 1296
368 1296
369 1296
370 1296
371 1296
372 1296
373 1296
374 1296
375 1296
376 1296
377 1296
378 1296
379 1296
380 1296
381 1296
382 1296
383 1296
384 1296
385 1296
386 1296
387 1296
388 1296
389 1296
390 1296
391 1296
392 1296
393 1296
394 1296
395 1296
396 1296
397 1296
398 1296
399 1296
400 1296
401 1296
402 1296
403 1296
404 1296
405 1296
406 1296
406 1298
406 1299
406 1300
406 1301
406 1302
406 1303
406 1304
406 1305
406 1306
406 1307
406 1308
406 1309
406 1310
406 1311
406 1312
406 1313
406 1314
406 1315
406 1316
406 1317
406 1318
406 1319
406 1320
406 1321
406 1322
406 1323
406 1324
406 1325
406 1326
406 1327
406 1328
406 1329
406 1330
406 1331
406 1332
406 1333
406 1334
406 1335
406 1336
406 1337
406 1338
406 1339
406 1340
406 1341
406 1342
406 1343
406 1344
406 1345
406 1346
406 1347
406 1348
406 1349
406 1350
406 1351
406 1352
406 1353
406 1354
406 1355
406 1356
406 1357
406 1358
406 1359
406 1360
406 1361
406 1362
406 1363
406 1364
406 1365
406 1366
406 1367
406 1368
406 1369
406 1370
406 1371
406 1372
406 1373
406 1374
406 1375
406 1376
406 1377
406 1378
406 1379
406 1380
406 1381
406 1382
406 1383
406 1384
406 1385
406 1386
406 1387
406 1388
406 1389
406 1390
406 1391
406 1392
406 1393
406 1394
406 1395
406 1396
406 1397
406 1398
406 1399
406 1400
406 1401
406 1402
406 1403
406 1404
406 1405
406 1406
406 1407
406 1408
406 1409
406 1410
406 1411
406 1412
406 1413
406 1414
406 1415
406 1416
406 1417
406 1418
406 1419
406 1420
406 1421
406 1422
406 1423
406 1424
406 1425
406 1426
406 1427
406 1428
406 1429
406 1430
406 1431
406 1432
406 1433
406 1434
406 1435
406 1436
406 1437
406 1438
406 1439
406 1440
406 1441
406 1442
406 1443
406 1444
406 1445
406 1446
406 1447
406 1448
406 1449
406 1450
406 1451
406 1452
406 1453
406 1454
406 1455
406 1456
406 1457
406 1458
406 1459
406 1460
406 1461
406 1462
406 1463
406 1464
406 1465
406 1466
406 1467
406 1468
407 1297
408 1297
409 1297
410 1297
411 1297
412 1297
413 1297
414 1297
415 1297
416 1297
417 1297
418 1297
419 1297
420 1297
421 1297
422 1297
423 1297
424 1297
424 1469
424 1470
424 1471
424 1472
424 1473
425 1469
425 1470
425 1471
425 1472
425 1473
426 1469
426 1470
426 1471
426 1472
426 1473
427 1469
427 1470
427 1471
427 1472
427 1473
428 1469
428 1470
428 1471
428 1472
428 1473
428 1474
428 1475
429 1474
430 1474
431 1474
432 1474
433 1474
434 1474
435 1474
436 1474
437 1474
438 1474
439 1474
440 1474
441 1474
442 1474
443 1474
444 1474
445 1474
446 1474
447 1474
448 1474
449 1474
450 1474
451 1474
452 1474
453 1474
454 1474
455 1474
456 1474
457 1474
458 1474
459 1474
460 1474
461 1474
462 1474
463 1474
464 1474
465 1474
466 1474
467 1474
468 1474
469 1474
470 1474
471 1474
472 1474
473 1474
474 1474
475 1474
476 1474
477 1474
478 1474
479 1474
480 1474
481 1474
482 1474
483 1474
484 1474
485 1474
486 1474
487 1474
488 1474
489 1474
490 1474
491 1474
492 1474
493 1474
494 1474
495 1474
496 1474
497 1474
498 1474
499 1474
500 1474
501 1474
502 1474
503 1474
504 1474
505 1474
506 1474
507 1474
508 1474
509 1474
510 1474
511 1474
512 1474
513 1474
514 1474
515 1474
516 1474
517 1474
518 1474
519 1474
520 1474
521 1474
522 1474
523 1474
524 1474
525 1474
526 1474
527 1474
528 1474
529 1474
530 1474
531 1474
532 1474
533 1474
534 1474
535 1474
536 1474
537 1474
538 1474
539 1474
540 1474
541 1474
542 1474
543 1474
544 1474
545 1474
546 1474
547 1474
548 1474
549 1474
550 1474
551 1474
552 1474
553 1474
554 1474
555 1474
556 1474
557 1474
558 1474
559 1474
560 1474
561 1474
562 1474
563 1474
564 1474
565 1474
566 1474
567 1474
568 1474
569 1474
570 1474
571 1474
572 1474
573 1474
574 1474
575 1474
576 1474
577 1474
578 1474
579 1474
580 1474
581 1474
582 1474
583 1474
584 1474
585 1474
586 1474
587 1474
588 1474
589 1474
590 1474
591 1474
592 1474
593 1474
594 1474
595 1474
596 1474
597 1474
598 1474
599 1474
599 1476
599 1477
599 1478
599 1479
599 1480
599 1481
599 1482
599 1483
599 1484
599 1485
599 1486
599 1487
599 1488
599 1489
599 1490
599 1491
599 1492
599 1493
599 1494
599 1495
599 1496
599 1497
599 1498
599 1499
599 1500
599 1501
599 1502
599 1503
599 1504
599 1505
599 1506
599 1507
599 1508
599 1509
599 1510
599 1511
599 1512
599 1513
599 1514
599 1515
599 1516
599 1517
599 1518
599 1519
599 1520
599 1521
599 1522
599 1523
599 1524
599 1525
599 1526
599 1527
599 1528
599 1529
599 1530
599 1531
599 1532
599 1533
599 1534
599 1535
599 1536
599 1537
599 1538
599 1539
599 1540
599 1541
599 1542
599 1543
599 1544
599 1545
599 1546
599 1547
599 1548
599 1549
599 1550
599 1551
599 1552
599 1553
599 1554
599 1555
599 1556
599 1557
599 1558
599 1559
599 1560
599 1561
599 1562
599 1563
599 1564
599 1565
599 1566
599 1567
599 1568
599 1569
599 1570
599 1571
599 1572
599 1573
599 1574
599 1575
599 1576
599 1577
599 1578
599 1579
599 1580
599 1581
599 1582
599 1583
599 1584
599 1585
599 1586
599 1587
599 1588
599 1589
599 1590
599 1591
599 1592
599 1593
599 1594
599 1595
599 1596
599 1597
599 1598
599 1599
599 1600
599 1601
599 1602
599 1603
599 1604
599 1605
599 1606
599 1607
599 1608
599 1609
599 1610
599 1611
599 1612
599 1613
599 1614
599 1615
599 1616
599 1617
599 1618
599 1619
599 1620
599 1621
599 1622
599 1623
599 1624
599 1625
599 1626
599 1627
599 1628
599 1629
599 1630
599 1631
599 1632
599 1633
599 1634
599 1635
599 1636
599 1637
599 1638
599 1639
599 1640
599 1641
599 1642
599 1643
599 1644
599 1645
599 1646
600 1475
601 1475
602 1475
603 1475
604 1475
605 1475
606 1475
607 1475
608 1475
609 1475
610 1475
611 1475
612 1475
613 1475
614 1475
615 1475
616 1475
617 1475
617 1647
617 1648
617 1649
617 1650
617 1651
618 1647
618 1648
618 1649
618 1650
618 1651
619 1647
619 1648
619 1649
619 1650
619 1651
620 1647
620 1648
620 1649
620 1650
620 1651
621 1647
621 1648
621 1649
621 1650
621 1651
621 1652
621 1653
622 1652
623 1652
624 1652
625 1652
626 1652
627 1652
628 1652
629 1652
630 1652
631 1652
632 1652
633 1652
634 1652
635 1652
636 1652
637 1652
638 1652
639 1652
640 1652
641 1652
642 1652
643 1652
644 1652
645 1652
646 1652
647 1652
648 1652
649 1652
650 1652
651 1652
652 1652
653 1652
654 1652
655 1652
656 1652
657 1652
658 1652
659 1652
660 1652
661 1652
662 1652
663 1652
664 1652
665 1652
666 1652
667 1652
668 1652
669 1652
670 1652
671 1652
672 1652
673 1652
674 1652
675 1652
676 1652
677 1652
678 1652
679 1652
680 1652
681 1652
682 1652
683 1652
684 1652
685 1652
686 1652
687 1652
688 1652
689 1652
690 1652
691 1652
692 1652
693 1652
694 1652
695 1652
696 1652
697 1652
698 1652
699 1652
699 1654
699 1655
699 1656
699 1657
699 1658
699 1659
699 1660
699 1661
699 1662
699 1663
699 1664
699 1665
699 1666
699 1667
699 1668
699 1669
699 1670
699 1671
699 1672
699 1673
699 1674
699 1675
699 1676
699 1677
699 1678
699 1679
699 1680
699 1681
699 1682
699 1683
699 1684
699 1685
699 1686
699 1687
699 1688
699 1689
699 1690
699 1691
699 1692
699 1693
699 1694
699 1695
699 1696
699 1697
699 1698
699 1699
699 1700
699 1701
699 1702
699 1703
699 1704
699 1705
699 1706
699 1707
699 1708
699 1709
699 1710
699 1711
699 1712
699 1713
699 1714
699 1715
699 1716
699 1717
699 1718
699 1719
699 1720
699 1721
699 1722
699 1723
699 1724
699 1725
699 1726
699 1727
699 1728
699 1729
699 1730
699 1731
700 1653
701 1653
702 1653
703 1653
704 1653
705 1653
706 1653
707 1653
708 1653
709 1653
710 1653
711 1653
711 1732
711 1733
711 1734
711 1735
711 1736
712 1732
712 1733
712 1734
712 1735
712 1736
713 1732
713 1733
713 1734
713 1735
713 1736
714 1732
714 1733
714 1734
714 1735
714 1736
715 1732
715 1733
715 1734
715 1735
715 1736
715 1737
715 1738
716 1737
717 1737
718 1737
719 1737
720 1737
721 1737
722 1737
723 1737
724 1737
725 1737
726 1737
727 1737
728 1737
729 1737
730 1737
731 1737
732 1737
733 1737
734 1737
735 1737
736 1737
737 1737
738 1737
739 1737
740 1737
741 1737
742 1737
743 1737
744 1737
745 1737
746 1737
747 1737
748 1737
749 1737
750 1737
751 1737
752 1737
753 1737
754 1737
755 1737
756 1737
757 1737
758 1737
759 1737
760 1737
761 1737
762 1737
763 1737
764 1737
765 1737
766 1737
767 1737
768 1737
769 1737
770 1737
771 1737
772 1737
773 1737
774 1737
775 1737
776 1737
777 1737
778 1737
779 1737
780 1737
781 1737
782 1737
783 1737
784 1737
785 1737
786 1737
787 1737
788 1737
789 1737
790 1737
791 1737
792 1737
793 1737
794 1737
795 1737
796 1737
797 1737
798 1737
799 1737
800 1737
801 1737
802 1737
803 1737
804 1737
805 1737
806 1737
807 1737
808 1737
809 1737
810 1737
811 1737
812 1737
813 1737
814 1737
815 1737
816 1737
817 1737
818 1737
819 1737
820 1737
821 1737
822 1737
823 1737
824 1737
825 1737
826 1737
827 1737
828 1737
829 1737
830 1737
831 1737
832 1737
833 1737
834 1737
835 1737
836 1737
837 1737
838 1737
839 1737
840 1737
841 1737
842 1737
843 1737
844 1737
845 1737
846 1737
847 1737
848 1737
849 1737
850 1737
851 1737
852 1737
853 1737
854 1737
855 1737
856 1737
857 1737
858 1737
859 1737
860 1737
861 1737
862 1737
863 1737
864 1737
865 1737
866 1737
867 1737
868 1737
868 1739
868 1740
868 1741
868 1742
868 1743
868 1744
868 1745
868 1746
868 1747
868 1748
868 1749
868 1750
868 1751
868 1752
868 1753
868 1754
868 1755
868 1756
868 1757
868 1758
868 1759
868 1760
868 1761
868 1762
868 1763
868 1764
868 1765
868 1766
868 1767
868 1768
868 1769
868 1770
868 1771
868 1772
868 1773
868 1774
868 1775
868 1776
868 1777
868 1778
868 1779
868 1780
868 1781
868 1782
868 1783
868 1784
868 1785
868 1786
868 1787
868 1788
868 1789
868 1790
868 1791
868 1792
868 1793
868 1794
868 1795
868 1796
868 1797
868 1798
868 1799
868 1800
868 1801
868 1802
868 1803
868 1804
868 1805
868 1806
868 1807
868 1808
868 1809
868 1810
868 1811
868 1812
868 1813
868 1814
868 1815
868 1816
868 1817
868 1818
868 1819
868 1820
868 1821
868 1822
868 1823
868 1824
868 1825
868 1826
868 1827
868 1828
868 1829
868 1830
868 1831
868 1832
868 1833
868 1834
868 1835
868 1836
868 1837
868 1838
868 1839
868 1840
868 1841
868 1842
868 1843
868 1844
868 1845
868 1846
868 1847
868 1848
868 1849
868 1850
868 1851
868 1852
868 1853
868 1854
868 1855
868 1856
868 1857
868 1858
868 1859
868 1860
868 1861
868 1862
868 1863
868 1864
868 1865
868 1866
868 1867
868 1868
868 1869
868 1870
868 1871
868 1872
868 1873
868 1874
868 1875
868 1876
868 1877
868 1878
868 1879
868 1880
868 1881
868 1882
868 1883
868 1884
868 1885
868 1886
868 1887
868 1888
868 1889
868 1890
868 1891
869 1738
870 1738
871 1738
872 1738
873 1738
874 1738
875 1738
876 1738
877 1738
878 1738
879 1738
880 1738
881 1738
882 1738
883 1738
884 1738
885 1738
885 1892
885 1893
885 1894
885 1895
885 1896
886 1892
886 1893
886 1894
886 1895
886 1896
887 1892
887 1893
887 1894
887 1895
887 1896
888 1892
888 1893
888 1894
888 1895
888 1896
889 1892
889 1893
889 1894
889 1895
889 1896
889 1897
889 1898
890 1897
891 1897
892 1897
893 1897
894 1897
895 1897
896 1897
897 1897
898 1897
899 1897
900 1897
901 1897
902 1897
903 1897
904 1897
905 1897
906 1897
907 1897
908 1897
909 1897
910 1897
911 1897
912 1897
913 1897
914 1897
915 1897
916 1897
917 1897
918 1897
919 1897
920 1897
921 1897
922 1897
923 1897
924 1897
925 1897
926 1897
927 1897
928 1897
929 1897
930 1897
931 1897
932 1897
933 1897
934 1897
935 1897
936 1897
937 1897
938 1897
939 1897
940 1897
941 1897
942 1897
943 1897
944 1897
945 1897
946 1897
947 1897
948 1897
949 1897
950 1897
951 1897
952 1897
953 1897
954 1897
955 1897
956 1897
957 1897
958 1897
959 1897
960 1897
961 1897
962 1897
963 1897
964 1897
965 1897
966 1897
967 1897
968 1897
969 1897
970 1897
971 1897
972 1897
973 1897
974 1897
975 1897
976 1897
977 1897
978 1897
979 1897
980 1897
981 1897
982 1897
983 1897
984 1897
985 1897
986 1897
987 1897
988 1897
989 1897
990 1897
991 1897
992 1897
993 1897
994 1897
995 1897
996 1897
997 1897
998 1897
999 1897
1000 1897
1001 1897
1002 1897
1003 1897
1004 1897
1005 1897
1006 1897
1007 1897
1008 1897
1009 1897
1010 1897
1011 1897
1012 1897
1013 1897
1014 1897
1015 1897
1016 1897
1017 1897
1018 1897
1019 1897
1020 1897
1021 1897
1022 1897
1023 1897
1024 1897
1025 1897
1026 1897
1027 1897
1028 1897
1029 1897
1030 1897
1031 1897
1032 1897
1033 1897
1034 1897
1035 1897
1036 1897
1037 1897
1038 1897
1039 1897
1040 1897
1041 1897
1042 1897
1043 1897
1044 1897
1045 1897
1046 1897
1047 1897
1048 1897
1049 1897
1050 1897
1051 1897
1052 1897
1053 1897
1054 1897
1055 1897
1056 1897
1057 1897
1058 1897
1059 1897
1060 1897
1060 1899
1060 1900
1060 1901
1060 1902
1060 1903
1060 1904
1060 1905
1060 1906
1060 1907
1060 1908
1060 1909
1060 1910
1060 1911
1060 1912
1060 1913
1060 1914
1060 1915
1060 1916
1060 1917
1060 1918
1060 1919
1060 1920
1060 1921
1060 1922
1060 1923
1060 1924
1060 1925
1060 1926
1060 1927
1060 1928
1060 1929
1060 1930
1060 1931
1060 1932
1060 1933
1060 1934
1060 1935
1060 1936
1060 1937
1060 1938
1060 1939
1060 1940
1060 1941
1060 1942
1060 1943
1060 1944
1060 1945
1060 1946
1060 1947
1060 1948
1060 1949
1060 1950
1060 1951
1060 1952
1060 1953
1060 1954
1060 1955
1060 1956
1060 1957
1060 1958
1060 1959
1060 1960
1060 1961
1060 1962
1060 1963
1060 1964
1060 1965
1060 1966
1060 1967
1060 1968
1060 1969
1060 1970
1060 1971
1060 1972
1060 1973
1060 1974
1060 1975
1060 1976
1060 1977
1060 1978
1060 1979
1060 1980
1060 1981
1060 1982
1060 1983
1060 1984
1060 1985
1060 1986
1060 1987
1060 1988
1060 1989
1060 1990
1060 1991
1060 1992
1060 1993
1060 1994
1060 1995
1060 1996
1060 1997
1060 1998
1060 1999
1060 2000
1060 2001
1060 2002
1060 2003
1060 2004
1060 2005
1060 2006
1060 2007
1060 2008
1060 2009
1060 2010
1060 2011
1060 2012
1060 2013
1060 2014
1060 2015
1060 2016
1060 2017
1060 2018
1060 2019
1060 2020
1060 2021
1060 2022
1060 2023
1060 2024
1060 2025
1060 2026
1060 2027
1060 2028
1060 2029
1060 2030
1060 2031
1060 2032
1060 2033
1060 2034
1060 2035
1060 2036
1060 2037
1060 2038
1060 2039
1060 2040
1060 2041
1060 2042
1060 2043
1060 2044
1060 2045
1060 2046
1060 2047
1060 2048
1060 2049
1060 2050
1060 2051
1060 2052
1060 2053
1060 2054
1060 2055
1060 2056
1060 2057
1060 2058
1060 2059
1060 2060
1060 2061
1060 2062
1060 2063
1060 2064
1060 2065
1060 2066
1060 2067
1060 2068
1060 2069
1061 1898
1062 1898
1063 1898
1064 1898
1065 1898
1066 1898
1067 1898
1068 1898
1069 1898
1070 1898
1071 1898
1072 1898
1073 1898
1074 1898
1075 1898
1076 1898
1077 1898
1078 1898